x = 19;
y = 11;
c = 83;
n = 59;

p = [50  86  70  29  84  37  98  52  95  57  73  37  12  80  50  11  96  19  80  92  47  23  69  63  90  83  84  70  50  86  29  27  72  32  23  29  60  79  21  64  100  62  88  54  50  69  31  57  77  96  56  89  74  72  59  25  56  32  37];
w = [9  4  4  6  5  1  5  5  10  7  10  2  10  5  8  3  4  6  5  10  7  4  8  5  6  10  9  3  9  2  9  9  4  7  3  2  10  2  7  9  2  1  3  7  10  2  5  2  6  7  6  7  2  3  3  2  9  8  7];
s = [7  10  9  2  5  2  4  11  5  10  8  5  2  7  7  10  1  2  4  1  2  4  2  10  3  6  4  7  1  2  10  5  5  9  4  4  4  8  11  10  6  11  10  3  4  6  7  8  9  8  4  4  6  4  4  2  1  4  1];
